70
1189
35
0 4
0 6
0 7
0 9
0 10
0 11
0 12
0 15
0 17
0 21
0 23
0 25
0 26
0 27
0 28
0 30
0 35
0 36
0 37
0 38
0 39
0 40
0 44
0 47
0 52
0 53
0 55
0 57
0 60
0 61
0 64
0 65
0 66
0 68
0 69
1 2
1 3
1 4
1 7
1 8
1 13
1 15
1 17
1 21
1 22
1 23
1 26
1 27
1 32
1 36
1 37
1 39
1 40
1 42
1 43
1 44
1 45
1 46
1 47
1 48
1 51
1 55
1 57
1 58
1 59
1 62
1 63
1 64
1 65
1 66
1 67
1 68
2 12
2 13
2 18
2 19
2 24
2 26
2 28
2 29
2 33
2 35
2 37
2 42
2 44
2 47
2 49
2 50
2 51
2 53
2 54
2 55
2 57
2 59
2 61
2 62
2 63
2 64
2 65
2 69
3 4
3 5
3 6
3 7
3 10
3 15
3 17
3 18
3 20
3 21
3 23
3 24
3 25
3 26
3 29
3 30
3 33
3 34
3 36
3 37
3 39
3 41
3 43
3 46
3 48
3 49
3 50
3 51
3 52
3 54
3 55
3 57
3 58
3 59
3 60
3 61
3 62
3 63
3 64
3 65
4 7
4 8
4 9
4 11
4 12
4 13
4 15
4 16
4 17
4 20
4 21
4 26
4 27
4 33
4 35
4 36
4 39
4 40
4 43
4 45
4 46
4 47
4 51
4 52
4 54
4 55
4 57
4 59
4 60
4 61
4 63
4 64
4 66
4 68
5 6
5 8
5 10
5 12
5 13
5 14
5 15
5 18
5 20
5 21
5 22
5 24
5 26
5 29
5 30
5 31
5 34
5 35
5 37
5 39
5 41
5 54
5 56
5 57
5 60
5 61
5 63
5 64
5 66
6 7
6 8
6 10
6 11
6 12
6 14
6 17
6 18
6 19
6 21
6 22
6 25
6 26
6 27
6 32
6 33
6 35
6 36
6 40
6 41
6 43
6 44
6 50
6 55
6 57
6 58
6 59
6 61
6 62
6 64
7 10
7 11
7 17
7 18
7 19
7 20
7 22
7 23
7 27
7 30
7 31
7 34
7 38
7 39
7 40
7 42
7 43
7 44
7 45
7 46
7 47
7 48
7 49
7 52
7 54
7 56
7 62
7 63
7 66
7 68
8 9
8 11
8 12
8 13
8 14
8 15
8 16
8 18
8 19
8 21
8 22
8 23
8 24
8 25
8 26
8 28
8 30
8 36
8 37
8 40
8 42
8 44
8 46
8 51
8 53
8 54
8 56
8 58
8 60
8 62
8 63
8 65
8 67
9 11
9 13
9 14
9 15
9 16
9 24
9 26
9 29
9 32
9 33
9 34
9 36
9 39
9 43
9 44
9 45
9 46
9 47
9 48
9 50
9 51
9 53
9 56
9 57
9 59
9 60
9 63
9 65
9 67
9 68
9 69
10 15
10 22
10 23
10 24
10 26
10 27
10 31
10 32
10 33
10 35
10 37
10 44
10 46
10 47
10 49
10 50
10 54
10 56
10 57
10 58
10 60
10 61
10 62
10 63
10 65
10 66
10 69
11 12
11 13
11 15
11 18
11 21
11 22
11 26
11 29
11 30
11 31
11 34
11 35
11 42
11 44
11 48
11 49
11 52
11 54
11 57
11 58
11 59
11 60
11 61
11 62
11 63
11 64
11 65
11 67
12 16
12 17
12 19
12 20
12 23
12 25
12 26
12 28
12 29
12 30
12 31
12 32
12 34
12 36
12 38
12 40
12 41
12 47
12 48
12 51
12 53
12 59
12 60
12 61
12 62
12 64
12 65
12 66
12 68
12 69
13 15
13 16
13 19
13 20
13 21
13 24
13 28
13 29
13 30
13 31
13 32
13 36
13 38
13 40
13 41
13 42
13 43
13 44
13 45
13 46
13 47
13 48
13 50
13 51
13 52
13 55
13 56
13 58
13 59
13 64
13 66
13 67
13 69
14 15
14 16
14 19
14 24
14 25
14 29
14 30
14 31
14 32
14 33
14 37
14 39
14 46
14 53
14 56
14 57
14 59
14 60
14 68
15 16
15 17
15 18
15 19
15 24
15 29
15 32
15 33
15 35
15 36
15 37
15 41
15 44
15 45
15 46
15 47
15 49
15 50
15 56
15 57
15 60
15 61
15 66
15 67
15 68
15 69
16 17
16 19
16 20
16 22
16 24
16 25
16 26
16 27
16 28
16 29
16 30
16 32
16 36
16 38
16 39
16 41
16 42
16 47
16 49
16 50
16 51
16 53
16 54
16 57
16 59
16 60
16 64
16 67
16 68
16 69
17 20
17 22
17 24
17 26
17 27
17 28
17 30
17 31
17 37
17 39
17 43
17 48
17 49
17 50
17 51
17 52
17 56
17 58
17 61
17 63
17 64
17 68
18 20
18 22
18 24
18 27
18 32
18 34
18 35
18 39
18 40
18 47
18 48
18 52
18 55
18 56
18 57
18 58
18 60
18 62
18 63
18 64
18 65
18 66
19 21
19 23
19 24
19 26
19 31
19 39
19 41
19 44
19 47
19 51
19 52
19 54
19 55
19 57
19 58
19 68
19 69
20 21
20 23
20 25
20 28
20 30
20 31
20 33
20 35
20 36
20 37
20 38
20 42
20 43
20 44
20 47
20 49
20 51
20 52
20 53
20 55
20 57
20 58
20 59
20 61
20 63
20 64
21 22
21 23
21 24
21 26
21 29
21 30
21 36
21 37
21 38
21 41
21 43
21 44
21 45
21 47
21 48
21 49
21 50
21 51
21 53
21 57
21 62
21 63
21 64
21 67
22 23
22 28
22 31
22 32
22 36
22 39
22 40
22 42
22 43
22 44
22 45
22 49
22 50
22 52
22 55
22 57
22 58
22 59
22 61
22 62
22 63
22 66
22 67
22 69
23 24
23 25
23 27
23 29
23 30
23 36
23 37
23 38
23 39
23 40
23 41
23 43
23 46
23 47
23 49
23 53
23 57
23 59
23 60
23 66
24 27
24 28
24 33
24 34
24 35
24 38
24 39
24 40
24 41
24 42
24 43
24 44
24 45
24 46
24 52
24 54
24 55
24 56
24 57
24 58
24 61
24 62
24 65
24 68
24 69
25 27
25 29
25 31
25 32
25 35
25 41
25 42
25 43
25 47
25 48
25 49
25 51
25 52
25 53
25 56
25 57
25 58
25 60
25 66
26 27
26 28
26 30
26 31
26 33
26 35
26 37
26 38
26 40
26 41
26 42
26 44
26 45
26 48
26 49
26 52
26 53
26 54
26 56
26 59
26 61
26 64
26 65
26 69
27 29
27 30
27 32
27 33
27 38
27 39
27 43
27 44
27 46
27 47
27 50
27 52
27 53
27 54
27 56
27 62
27 63
27 64
27 67
27 68
28 29
28 32
28 33
28 35
28 36
28 37
28 39
28 40
28 42
28 43
28 44
28 45
28 46
28 49
28 50
28 53
28 55
28 56
28 58
28 60
28 62
28 63
28 69
29 32
29 33
29 35
29 38
29 40
29 43
29 44
29 50
29 52
29 53
29 55
29 56
29 58
29 61
29 63
29 64
29 66
29 67
29 68
29 69
30 31
30 32
30 33
30 34
30 35
30 36
30 37
30 40
30 44
30 48
30 50
30 53
30 55
30 57
30 60
30 64
30 65
30 67
30 69
31 32
31 33
31 34
31 35
31 43
31 44
31 46
31 49
31 51
31 52
31 53
31 54
31 55
31 57
31 59
31 60
31 62
31 67
31 69
32 36
32 41
32 43
32 46
32 47
32 52
32 54
32 55
32 57
32 61
32 64
32 65
32 66
32 67
33 34
33 36
33 39
33 40
33 45
33 47
33 53
33 55
33 57
33 59
33 60
33 61
33 62
33 63
33 65
33 66
33 68
34 35
34 38
34 39
34 40
34 43
34 45
34 46
34 50
34 51
34 53
34 54
34 55
34 56
34 57
34 58
34 62
34 64
34 65
35 36
35 39
35 42
35 43
35 44
35 45
35 46
35 47
35 50
35 52
35 53
35 57
35 58
35 63
35 65
35 66
35 67
36 39
36 40
36 44
36 45
36 46
36 47
36 49
36 50
36 51
36 52
36 59
36 60
36 63
36 64
36 67
36 69
37 38
37 39
37 42
37 43
37 48
37 50
37 51
37 52
37 54
37 56
37 59
37 60
37 64
37 67
37 68
38 39
38 40
38 41
38 45
38 48
38 49
38 50
38 51
38 54
38 60
38 63
38 64
38 65
39 41
39 43
39 44
39 45
39 46
39 47
39 48
39 49
39 50
39 51
39 53
39 55
39 56
39 57
39 58
39 61
39 62
39 63
39 66
39 67
40 41
40 42
40 43
40 45
40 48
40 49
40 51
40 56
40 57
40 59
40 64
40 66
40 67
40 69
41 42
41 44
41 45
41 46
41 47
41 48
41 49
41 51
41 53
41 54
41 55
41 58
41 61
41 64
41 68
42 49
42 52
42 53
42 54
42 55
42 57
42 58
42 65
42 68
42 69
43 46
43 52
43 53
43 54
43 57
43 58
43 59
43 60
43 61
43 62
43 63
43 64
44 45
44 46
44 47
44 53
44 55
44 56
44 58
44 60
44 61
44 64
44 65
44 66
44 67
44 68
45 47
45 50
45 52
45 55
45 56
45 58
45 63
45 64
45 65
45 69
46 48
46 49
46 50
46 51
46 54
46 55
46 56
46 57
46 58
46 65
46 66
46 69
47 48
47 49
47 51
47 52
47 54
47 57
47 58
47 60
47 61
47 62
47 63
47 64
47 67
47 69
48 51
48 52
48 55
48 56
48 57
48 58
48 59
48 60
48 63
48 64
48 66
48 67
48 68
48 69
49 50
49 51
49 53
49 54
49 56
49 57
49 59
49 61
49 62
49 63
49 65
49 66
50 51
50 52
50 53
50 58
50 63
50 66
50 68
50 69
51 52
51 53
51 54
51 62
51 63
51 65
51 66
51 68
51 69
52 53
52 54
52 55
52 56
52 58
52 59
52 61
52 63
52 67
53 54
53 62
53 66
53 67
54 56
54 57
54 58
54 59
54 63
54 66
54 67
55 56
55 57
55 59
55 60
55 62
55 65
55 67
56 59
56 65
56 66
56 68
56 69
57 59
57 60
57 61
57 62
57 63
57 64
57 67
57 68
58 61
58 65
58 67
59 60
59 61
59 63
59 65
59 66
59 67
59 68
60 62
60 63
60 68
60 69
61 62
61 64
61 65
61 66
61 67
62 65
62 66
62 69
63 64
63 68
64 65
65 66
65 67
65 69
66 67
66 69
67 68
9 19
6 25
16 46
47 61
64 67
3 41
0 7
26 52
4 50
33 34
8 24
18 23
38 56
57 66
12 55
44 53
10 21
15 37
1 48
45 62
17 40
31 65
35 58
60 69
5 30
51 63
27 68
29 32
2 36
13 14
28 42
43 59
20 54
39 49
11 22
